45 89 32 35 81 33 6 20 25 88 5 56 71 26 72 27 98 78 13 93 92 58 66 64 36 49 18 17 73 87 69 2 39 47 9 52 42 86 11 7 29 76 62 22 4 38 50 59 99 85 91 55 97 54 15 14 60 40 68 67 48 23 44 30 41 16 46 51 75 77 1 57 31 53 12 61 65 37 10 83 94 82 43 8 19 21 70 0 95 34 96 84 74 63 79 80 28 3 90 24 

